Set parameter TokenServer to value "opt-license.discovery.wisc.edu"
Set parameter TimeLimit to value 1800
Gurobi Optimizer version 9.5.1 build v9.5.1rc2 (linux64)
Thread count: 40 physical cores, 80 logical processors, using up to 32 threads
Optimize a model with 14771 rows, 22120 columns and 80358 nonzeros
Model fingerprint: 0x4aa9b87a
Variable types: 17220 continuous, 4900 integer (4900 binary)
Coefficient statistics:
  Matrix range     [1e+00, 2e+03]
  Objective range  [1e+00, 1e+01]
  Bounds range     [1e+00, 1e+00]
  RHS range        [1e+00, 6e+00]
Presolve removed 140 rows and 246 columns
Presolve time: 0.33s
Presolved: 14631 rows, 21874 columns, 79858 nonzeros
Variable types: 16974 continuous, 4900 integer (4900 binary)

Root relaxation: objective 9.200306e+01, 1973 iterations, 0.22 seconds (0.13 work units)

    Nodes    |    Current Node    |     Objective Bounds      |     Work
 Expl Unexpl |  Obj  Depth IntInf | Incumbent    BestBd   Gap | It/Node Time

     0     0   92.00306    0  165          -   92.00306      -     -    1s
H    0     0                      95.4733781   92.00306  3.63%     -    1s
     0     0   92.15830    0  215   95.47338   92.15830  3.47%     -    1s
     0     0   92.15830    0  165   95.47338   92.15830  3.47%     -    2s
H    0     0                      93.8138014   92.15830  1.76%     -    2s
     0     0   92.16678    0  213   93.81380   92.16678  1.76%     -    3s
     0     0   92.16678    0  163   93.81380   92.16678  1.76%     -    3s
H    0     0                      93.1236597   92.16678  1.03%     -    4s
     0     0   92.16686    0  201   93.12366   92.16686  1.03%     -    4s
     0     0   92.16686    0  140   93.12366   92.16686  1.03%     -    4s
     0     0   92.16712    0  179   93.12366   92.16712  1.03%     -    4s
     0     0   92.17692    0  181   93.12366   92.17692  1.02%     -    4s
     0     0   92.32169    0  172   93.12366   92.32169  0.86%     -    4s
     0     0   92.33885    0  188   93.12366   92.33885  0.84%     -    4s
H    0     0                      92.5378732   92.33885  0.22%     -    4s

Cutting planes:
  Gomory: 3
  MIR: 8
  StrongCG: 1
  Flow cover: 31
  GUB cover: 2
  Inf proof: 1
  Zero half: 5

Explored 1 nodes (7747 simplex iterations) in 4.94 seconds (1.84 work units)
Thread count was 32 (of 80 available processors)

Solution count 4: 92.5379 93.1237 93.8138 95.4734 

Optimal solution found (tolerance 1.00e-04)
Best objective 9.253787324945e+01, best bound 9.253787324945e+01, gap 0.0000%
